c n orig vars 130
p cnf 132 436
1 2 -131 0
3 4 -131 0
5 6 -131 0
7 8 -131 0
9 10 -131 0
11 12 -131 0
13 14 -131 0
15 16 -131 0
17 18 -131 0
19 20 -131 0
21 22 -131 0
23 24 -131 0
25 26 -131 0
27 28 -131 0
29 30 -131 0
31 32 -131 0
33 34 -131 0
35 36 -131 0
37 38 -131 0
39 40 -131 0
41 51 61 71 81 91 101 111 121 -132 0
42 52 62 72 82 92 102 112 122 -132 0
43 53 63 73 83 93 103 113 123 -132 0
44 54 64 74 84 94 104 114 124 -132 0
45 55 65 75 85 95 105 115 125 -132 0
46 56 66 76 86 96 106 116 126 -132 0
47 57 67 77 87 97 107 117 127 -132 0
48 58 68 78 88 98 108 118 128 -132 0
49 59 69 79 89 99 109 119 129 -132 0
50 60 70 80 90 100 110 120 130 -132 0
-41 -42 -132 0
-41 -43 -132 0
-41 -44 -132 0
-41 -45 -132 0
-41 -46 -132 0
-41 -47 -132 0
-41 -48 -132 0
-41 -49 -132 0
-41 -50 -132 0
-42 -43 -132 0
-42 -44 -132 0
-42 -45 -132 0
-42 -46 -132 0
-42 -47 -132 0
-42 -48 -132 0
-42 -49 -132 0
-42 -50 -132 0
-43 -44 -132 0
-43 -45 -132 0
-43 -46 -132 0
-43 -47 -132 0
-43 -48 -132 0
-43 -49 -132 0
-43 -50 -132 0
-44 -45 -132 0
-44 -46 -132 0
-44 -47 -132 0
-44 -48 -132 0
-44 -49 -132 0
-44 -50 -132 0
-45 -46 -132 0
-45 -47 -132 0
-45 -48 -132 0
-45 -49 -132 0
-45 -50 -132 0
-46 -47 -132 0
-46 -48 -132 0
-46 -49 -132 0
-46 -50 -132 0
-47 -48 -132 0
-47 -49 -132 0
-47 -50 -132 0
-48 -49 -132 0
-48 -50 -132 0
-49 -50 -132 0
-51 -52 -132 0
-51 -53 -132 0
-51 -54 -132 0
-51 -55 -132 0
-51 -56 -132 0
-51 -57 -132 0
-51 -58 -132 0
-51 -59 -132 0
-51 -60 -132 0
-52 -53 -132 0
-52 -54 -132 0
-52 -55 -132 0
-52 -56 -132 0
-52 -57 -132 0
-52 -58 -132 0
-52 -59 -132 0
-52 -60 -132 0
-53 -54 -132 0
-53 -55 -132 0
-53 -56 -132 0
-53 -57 -132 0
-53 -58 -132 0
-53 -59 -132 0
-53 -60 -132 0
-54 -55 -132 0
-54 -56 -132 0
-54 -57 -132 0
-54 -58 -132 0
-54 -59 -132 0
-54 -60 -132 0
-55 -56 -132 0
-55 -57 -132 0
-55 -58 -132 0
-55 -59 -132 0
-55 -60 -132 0
-56 -57 -132 0
-56 -58 -132 0
-56 -59 -132 0
-56 -60 -132 0
-57 -58 -132 0
-57 -59 -132 0
-57 -60 -132 0
-58 -59 -132 0
-58 -60 -132 0
-59 -60 -132 0
-61 -62 -132 0
-61 -63 -132 0
-61 -64 -132 0
-61 -65 -132 0
-61 -66 -132 0
-61 -67 -132 0
-61 -68 -132 0
-61 -69 -132 0
-61 -70 -132 0
-62 -63 -132 0
-62 -64 -132 0
-62 -65 -132 0
-62 -66 -132 0
-62 -67 -132 0
-62 -68 -132 0
-62 -69 -132 0
-62 -70 -132 0
-63 -64 -132 0
-63 -65 -132 0
-63 -66 -132 0
-63 -67 -132 0
-63 -68 -132 0
-63 -69 -132 0
-63 -70 -132 0
-64 -65 -132 0
-64 -66 -132 0
-64 -67 -132 0
-64 -68 -132 0
-64 -69 -132 0
-64 -70 -132 0
-65 -66 -132 0
-65 -67 -132 0
-65 -68 -132 0
-65 -69 -132 0
-65 -70 -132 0
-66 -67 -132 0
-66 -68 -132 0
-66 -69 -132 0
-66 -70 -132 0
-67 -68 -132 0
-67 -69 -132 0
-67 -70 -132 0
-68 -69 -132 0
-68 -70 -132 0
-69 -70 -132 0
-71 -72 -132 0
-71 -73 -132 0
-71 -74 -132 0
-71 -75 -132 0
-71 -76 -132 0
-71 -77 -132 0
-71 -78 -132 0
-71 -79 -132 0
-71 -80 -132 0
-72 -73 -132 0
-72 -74 -132 0
-72 -75 -132 0
-72 -76 -132 0
-72 -77 -132 0
-72 -78 -132 0
-72 -79 -132 0
-72 -80 -132 0
-73 -74 -132 0
-73 -75 -132 0
-73 -76 -132 0
-73 -77 -132 0
-73 -78 -132 0
-73 -79 -132 0
-73 -80 -132 0
-74 -75 -132 0
-74 -76 -132 0
-74 -77 -132 0
-74 -78 -132 0
-74 -79 -132 0
-74 -80 -132 0
-75 -76 -132 0
-75 -77 -132 0
-75 -78 -132 0
-75 -79 -132 0
-75 -80 -132 0
-76 -77 -132 0
-76 -78 -132 0
-76 -79 -132 0
-76 -80 -132 0
-77 -78 -132 0
-77 -79 -132 0
-77 -80 -132 0
-78 -79 -132 0
-78 -80 -132 0
-79 -80 -132 0
-81 -82 -132 0
-81 -83 -132 0
-81 -84 -132 0
-81 -85 -132 0
-81 -86 -132 0
-81 -87 -132 0
-81 -88 -132 0
-81 -89 -132 0
-81 -90 -132 0
-82 -83 -132 0
-82 -84 -132 0
-82 -85 -132 0
-82 -86 -132 0
-82 -87 -132 0
-82 -88 -132 0
-82 -89 -132 0
-82 -90 -132 0
-83 -84 -132 0
-83 -85 -132 0
-83 -86 -132 0
-83 -87 -132 0
-83 -88 -132 0
-83 -89 -132 0
-83 -90 -132 0
-84 -85 -132 0
-84 -86 -132 0
-84 -87 -132 0
-84 -88 -132 0
-84 -89 -132 0
-84 -90 -132 0
-85 -86 -132 0
-85 -87 -132 0
-85 -88 -132 0
-85 -89 -132 0
-85 -90 -132 0
-86 -87 -132 0
-86 -88 -132 0
-86 -89 -132 0
-86 -90 -132 0
-87 -88 -132 0
-87 -89 -132 0
-87 -90 -132 0
-88 -89 -132 0
-88 -90 -132 0
-89 -90 -132 0
-91 -92 -132 0
-91 -93 -132 0
-91 -94 -132 0
-91 -95 -132 0
-91 -96 -132 0
-91 -97 -132 0
-91 -98 -132 0
-91 -99 -132 0
-91 -100 -132 0
-92 -93 -132 0
-92 -94 -132 0
-92 -95 -132 0
-92 -96 -132 0
-92 -97 -132 0
-92 -98 -132 0
-92 -99 -132 0
-92 -100 -132 0
-93 -94 -132 0
-93 -95 -132 0
-93 -96 -132 0
-93 -97 -132 0
-93 -98 -132 0
-93 -99 -132 0
-93 -100 -132 0
-94 -95 -132 0
-94 -96 -132 0
-94 -97 -132 0
-94 -98 -132 0
-94 -99 -132 0
-94 -100 -132 0
-95 -96 -132 0
-95 -97 -132 0
-95 -98 -132 0
-95 -99 -132 0
-95 -100 -132 0
-96 -97 -132 0
-96 -98 -132 0
-96 -99 -132 0
-96 -100 -132 0
-97 -98 -132 0
-97 -99 -132 0
-97 -100 -132 0
-98 -99 -132 0
-98 -100 -132 0
-99 -100 -132 0
-101 -102 -132 0
-101 -103 -132 0
-101 -104 -132 0
-101 -105 -132 0
-101 -106 -132 0
-101 -107 -132 0
-101 -108 -132 0
-101 -109 -132 0
-101 -110 -132 0
-102 -103 -132 0
-102 -104 -132 0
-102 -105 -132 0
-102 -106 -132 0
-102 -107 -132 0
-102 -108 -132 0
-102 -109 -132 0
-102 -110 -132 0
-103 -104 -132 0
-103 -105 -132 0
-103 -106 -132 0
-103 -107 -132 0
-103 -108 -132 0
-103 -109 -132 0
-103 -110 -132 0
-104 -105 -132 0
-104 -106 -132 0
-104 -107 -132 0
-104 -108 -132 0
-104 -109 -132 0
-104 -110 -132 0
-105 -106 -132 0
-105 -107 -132 0
-105 -108 -132 0
-105 -109 -132 0
-105 -110 -132 0
-106 -107 -132 0
-106 -108 -132 0
-106 -109 -132 0
-106 -110 -132 0
-107 -108 -132 0
-107 -109 -132 0
-107 -110 -132 0
-108 -109 -132 0
-108 -110 -132 0
-109 -110 -132 0
-111 -112 -132 0
-111 -113 -132 0
-111 -114 -132 0
-111 -115 -132 0
-111 -116 -132 0
-111 -117 -132 0
-111 -118 -132 0
-111 -119 -132 0
-111 -120 -132 0
-112 -113 -132 0
-112 -114 -132 0
-112 -115 -132 0
-112 -116 -132 0
-112 -117 -132 0
-112 -118 -132 0
-112 -119 -132 0
-112 -120 -132 0
-113 -114 -132 0
-113 -115 -132 0
-113 -116 -132 0
-113 -117 -132 0
-113 -118 -132 0
-113 -119 -132 0
-113 -120 -132 0
-114 -115 -132 0
-114 -116 -132 0
-114 -117 -132 0
-114 -118 -132 0
-114 -119 -132 0
-114 -120 -132 0
-115 -116 -132 0
-115 -117 -132 0
-115 -118 -132 0
-115 -119 -132 0
-115 -120 -132 0
-116 -117 -132 0
-116 -118 -132 0
-116 -119 -132 0
-116 -120 -132 0
-117 -118 -132 0
-117 -119 -132 0
-117 -120 -132 0
-118 -119 -132 0
-118 -120 -132 0
-119 -120 -132 0
-121 -122 -132 0
-121 -123 -132 0
-121 -124 -132 0
-121 -125 -132 0
-121 -126 -132 0
-121 -127 -132 0
-121 -128 -132 0
-121 -129 -132 0
-121 -130 -132 0
-122 -123 -132 0
-122 -124 -132 0
-122 -125 -132 0
-122 -126 -132 0
-122 -127 -132 0
-122 -128 -132 0
-122 -129 -132 0
-122 -130 -132 0
-123 -124 -132 0
-123 -125 -132 0
-123 -126 -132 0
-123 -127 -132 0
-123 -128 -132 0
-123 -129 -132 0
-123 -130 -132 0
-124 -125 -132 0
-124 -126 -132 0
-124 -127 -132 0
-124 -128 -132 0
-124 -129 -132 0
-124 -130 -132 0
-125 -126 -132 0
-125 -127 -132 0
-125 -128 -132 0
-125 -129 -132 0
-125 -130 -132 0
-126 -127 -132 0
-126 -128 -132 0
-126 -129 -132 0
-126 -130 -132 0
-127 -128 -132 0
-127 -129 -132 0
-127 -130 -132 0
-128 -129 -132 0
-128 -130 -132 0
-129 -130 -132 0
131 132 0
